(set-option :print-success false)
(set-logic QF_UF)
(declare-sort x5 0)
(declare-fun x4 () x5)
(declare-fun x2 () Bool)
(declare-fun x1 () x5)
(declare-fun x3 () x5)
(assert x2)
(assert (not (= x4 x3)))
(assert (not (or (= x4 x1) (= x1 x3))))
(check-sat)
(exit)
